  339

Au      0.000000    1.665650    0.000000
Au      2.885000    1.665650    0.000000
Au      5.769990    1.665650    0.000000
Au      8.654990    1.665650    0.000000
Au      1.442500    4.164130    0.000000
Au      4.327490    4.164130    0.000000
Au      7.212490    4.164130    0.000000
Au     10.097480    4.164130    0.000000
Au      2.885000    6.662610    0.000000
Au      5.769990    6.662610    0.000000
Au      8.654990    6.662610    0.000000
Au     11.539980    6.662610    0.000000
Au      4.327490    9.161090    0.000000
Au      7.212490    9.161090    0.000000
Au     10.097480    9.161090    0.000000
Au     12.982480    9.161090    0.000000
Au      0.000000    0.000000    2.355590
Au      2.885000    0.000000    2.355590
Au      5.769990    0.000000    2.355590
Au      8.654990    0.000000    2.355590
Au      1.442500    2.498480    2.355590
Au      4.327490    2.498480    2.355590
Au      7.212490    2.498480    2.355590
Au     10.097480    2.498480    2.355590
Au      2.885000    4.996960    2.355590
Au      5.769990    4.996960    2.355590
Au      8.654990    4.996960    2.355590
Au     11.539980    4.996960    2.355590
Au      4.327490    7.495440    2.355590
Au      7.212490    7.495440    2.355590
Au     10.097480    7.495440    2.355590
Au     12.982480    7.495440    2.355590
Au      1.442500    0.832830    4.711180
Au      4.327490    0.832830    4.711180
Au      7.212490    0.832830    4.711180
Au     10.097480    0.832830    4.711180
Au      2.885000    3.331310    4.711180
Au      5.769990    3.331310    4.711180
Au      8.654990    3.331310    4.711180
Au     11.539980    3.331310    4.711180
Au      4.327490    5.829790    4.711180
Au      7.212490    5.829790    4.711180
Au     10.097480    5.829790    4.711180
Au     12.982480    5.829790    4.711180
Au      5.769990    8.328270    4.711180
Au      8.654990    8.328270    4.711180
Au     11.539980    8.328270    4.711180
Au     14.424980    8.328270    4.711180
Au      0.000000    1.665650    7.066770
Au      2.885000    1.665650    7.066770
Au      5.769990    1.665650    7.066770
Au      8.654990    1.665650    7.066770
Au      1.442500    4.164130    7.066770
Au      4.327490    4.164130    7.066770
Au      7.212490    4.164130    7.066770
Au     10.097480    4.164130    7.066770
Au      2.885000    6.662610    7.066770
Au      5.769990    6.662610    7.066770
Au      8.654990    6.662610    7.066770
Au     11.539980    6.662610    7.066770
Au      4.327490    9.161090    7.066770
Au      7.212490    9.161090    7.066770
Au     10.097480    9.161090    7.066770
Au     12.982480    9.161090    7.066770
Au      0.000000    0.000000    9.422360
Au      2.885000    0.000000    9.422360
Au      5.769990    0.000000    9.422360
Au      8.654990    0.000000    9.422360
Au      1.442500    2.498480    9.422360
Au      4.327490    2.498480    9.422360
Au      7.212490    2.498480    9.422360
Au     10.097480    2.498480    9.422360
Au      2.885000    4.996960    9.422360
Au      5.769990    4.996960    9.422360
Au      8.654990    4.996960    9.422360
Au     11.539980    4.996960    9.422360
Au      4.327490    7.495440    9.422360
Au      7.212490    7.495440    9.422360
Au     10.097480    7.495440    9.422360
Au     12.982480    7.495440    9.422360
Au      1.442500    0.832830   11.777950
Au      4.327490    0.832830   11.777950
Au      7.212490    0.832830   11.777950
Au     10.097480    0.832830   11.777950
Au      2.885000    3.331310   11.777950
Au      5.769990    3.331310   11.777950
Au      8.654990    3.331310   11.777950
Au     11.539980    3.331310   11.777950
Au      4.327490    5.829790   11.777950
Au      7.212490    5.829790   11.777950
Au     10.097480    5.829790   11.777950
Au     12.982480    5.829790   11.777950
Au      5.769990    8.328270   11.777950
Au      8.654990    8.328270   11.777950
Au     11.539980    8.328270   11.777950
Au     14.424980    8.328270   11.777950
Au      0.000000    1.665650   14.133540
Au      2.885000    1.665650   14.133540
Au      5.769990    1.665650   14.133540
Au      8.654990    1.665650   14.133540
Au      1.442500    4.164130   14.133540
Au      4.327490    4.164130   14.133540
Au      7.212490    4.164130   14.133540
Au     10.097480    4.164130   14.133540
Au      2.885000    6.662610   14.133540
Au      5.769990    6.662610   14.133540
Au      8.654990    6.662610   14.133540
Au     11.539980    6.662610   14.133540
Au      4.327490    9.161090   14.133540
Au      7.212490    9.161090   14.133540
Au     10.097480    9.161090   14.133540
Au     12.982480    9.161090   14.133540
Au      0.000000    0.000000   16.489130
Au      2.885000    0.000000   16.489130
Au      5.769990    0.000000   16.489130
Au      8.654990    0.000000   16.489130
Au      1.442500    2.498480   16.489130
Au      4.327490    2.498480   16.489130
Au      7.212490    2.498480   16.489130
Au     10.097480    2.498480   16.489130
Au      2.885000    4.996960   16.489130
Au      5.769990    4.996960   16.489130
Au      8.654990    4.996960   16.489130
Au     11.539980    4.996960   16.489130
Au      4.327490    7.495440   16.489130
Au      7.212490    7.495440   16.489130
Au     10.097480    7.495440   16.489130
Au     12.982480    7.495440   16.489130
Au      2.885000    3.331310   18.844720
Au      5.769990    3.331310   18.844720
Au      8.654990    3.331310   18.844720
Au      4.327490    5.829790   18.844720
Au      7.212490    5.829790   18.844720
Au      5.769990    8.328270   18.844720
Au      4.327490    4.164130   21.200310
Au      7.212490    4.164130   21.200310
Au      5.769990    6.662610   21.200310
Au      5.769990    4.996960   23.555900
C       6.356320    3.590960   31.902270
C       6.248600    3.395960   30.530930
C       5.723880    4.437840   29.691780
C       5.382530    5.695980   30.300880
C       5.551560    5.832060   31.685950
H       5.660770    3.262810   27.867460
C       5.457700    4.246770   28.317100
C       4.870950    6.753810   29.495550
H       5.327090    6.762660   32.224610
C       4.642590    6.554700   28.148650
C       4.887610    5.278020   27.558680
H       4.641800    7.728510   29.950800
H       4.259270    7.381750   27.537450
S       4.461200    4.884940   25.883900
C       3.412140    6.276250   25.374800
H       3.975010    7.222610   25.313850
H       3.080470    6.008620   24.354760
H       2.540770    6.372560   26.045450
N       5.981770    4.811550   32.448930
C       6.045100    5.004840   33.880640
C       4.890890    4.725510   34.622850
C       7.219040    5.480370   34.486790
C       4.906160    4.875670   36.011540
H       3.977390    4.404560   34.103920
C       7.220960    5.640560   35.877290
H       8.091430    5.735740   33.854730
C       6.077540    5.326180   36.646330
H       3.999880    4.645870   36.582070
H       8.122160    6.023760   36.379830
S       6.196150    5.597520   38.400080
C       4.522250    5.243440   39.001490
H       4.609320    5.314790   40.107570
H       3.796940    5.986790   38.622530
H       4.201090    4.214930   38.753000
P       9.444810    5.926540   31.126920
F       7.905990    6.312690   30.600320
F       8.759050    4.710930   32.104870
F       9.548780    4.817910   29.893340
F      10.933150    5.518310   31.669490
F      10.079770    7.130790   30.188440
F       9.227950    6.963860   32.414300
C       6.656340    2.083940   29.964440
C       5.871920    0.934790   30.188410
C       7.868860    1.986720   29.252680
C       6.274540   -0.316950   29.701970
H       4.935860    1.028500   30.754950
C       8.272250    0.731000   28.769200
H       8.493810    2.892590   29.137550
C       7.480470   -0.408310   28.988510
H       5.649920   -1.211740   29.888220
H       9.218760    0.644230   28.216840
H       7.807210   -1.387720   28.601970
C       6.868280    2.507030   32.787360
C       6.001400    1.790120   33.632700
C       8.215620    2.104720   32.668910
C       6.475040    0.687940   34.355420
H       4.941740    2.070690   33.705040
C       8.679500    1.007130   33.398400
H       8.886820    2.690970   32.028630
C       7.814780    0.294090   34.237110
H       5.789610    0.121700   35.000780
H       9.733120    0.705310   33.300120
H       8.182780   -0.577870   34.795310
Au      7.212490    4.164130   40.435900
Au      7.212490    2.498480   42.791490
Au      5.769990    4.996960   42.791490
Au      8.654990    4.996960   42.791490
Au      7.212490    0.832830   45.147080
Au      5.769990    3.331310   45.147080
Au      8.654990    3.331310   45.147080
Au      4.327490    5.829790   45.147080
Au      7.212490    5.829790   45.147080
Au     10.097480    5.829790   45.147080
Au      0.000000    1.665650   47.502670
Au      2.885000    1.665650   47.502670
Au      5.769990    1.665650   47.502670
Au      8.654990    1.665650   47.502670
Au      1.442500    4.164130   47.502670
Au      4.327490    4.164130   47.502670
Au      7.212490    4.164130   47.502670
Au     10.097490    4.164130   47.502670
Au      2.885000    6.662610   47.502670
Au      5.769990    6.662610   47.502670
Au      8.654990    6.662610   47.502670
Au     11.539980    6.662610   47.502670
Au      4.327490    9.161090   47.502670
Au      7.212490    9.161090   47.502670
Au     10.097490    9.161090   47.502670
Au     12.982480    9.161090   47.502670
Au      0.000000    0.000000   49.858260
Au      2.885000    0.000000   49.858260
Au      5.769990    0.000000   49.858260
Au      8.654990    0.000000   49.858260
Au      1.442500    2.498480   49.858260
Au      4.327490    2.498480   49.858260
Au      7.212490    2.498480   49.858260
Au     10.097490    2.498480   49.858260
Au      2.885000    4.996960   49.858260
Au      5.769990    4.996960   49.858260
Au      8.654990    4.996960   49.858260
Au     11.539980    4.996960   49.858260
Au      4.327490    7.495440   49.858260
Au      7.212490    7.495440   49.858260
Au     10.097490    7.495440   49.858260
Au     12.982480    7.495440   49.858260
Au      1.442500    0.832830   52.213850
Au      4.327490    0.832830   52.213850
Au      7.212490    0.832830   52.213850
Au     10.097490    0.832830   52.213850
Au      2.885000    3.331310   52.213850
Au      5.769990    3.331310   52.213850
Au      8.654990    3.331310   52.213850
Au     11.539980    3.331310   52.213850
Au      4.327490    5.829790   52.213850
Au      7.212490    5.829790   52.213850
Au     10.097490    5.829790   52.213850
Au     12.982480    5.829790   52.213850
Au      5.769990    8.328270   52.213850
Au      8.654990    8.328270   52.213850
Au     11.539980    8.328270   52.213850
Au     14.424980    8.328270   52.213850
Au      0.000000    1.665650   54.569440
Au      2.885000    1.665650   54.569440
Au      5.769990    1.665650   54.569440
Au      8.654990    1.665650   54.569440
Au      1.442500    4.164130   54.569440
Au      4.327490    4.164130   54.569440
Au      7.212490    4.164130   54.569440
Au     10.097490    4.164130   54.569440
Au      2.885000    6.662610   54.569440
Au      5.769990    6.662610   54.569440
Au      8.654990    6.662610   54.569440
Au     11.539980    6.662610   54.569440
Au      4.327490    9.161090   54.569440
Au      7.212490    9.161090   54.569440
Au     10.097490    9.161090   54.569440
Au     12.982480    9.161090   54.569440
Au      0.000000    0.000000   56.925030
Au      2.885000    0.000000   56.925030
Au      5.769990    0.000000   56.925030
Au      8.654990    0.000000   56.925030
Au      1.442500    2.498480   56.925030
Au      4.327490    2.498480   56.925030
Au      7.212490    2.498480   56.925030
Au     10.097490    2.498480   56.925030
Au      2.885000    4.996960   56.925030
Au      5.769990    4.996960   56.925030
Au      8.654990    4.996960   56.925030
Au     11.539980    4.996960   56.925030
Au      4.327490    7.495440   56.925030
Au      7.212490    7.495440   56.925030
Au     10.097490    7.495440   56.925030
Au     12.982480    7.495440   56.925030
Au      1.442500    0.832830   59.280620
Au      4.327490    0.832830   59.280620
Au      7.212490    0.832830   59.280620
Au     10.097490    0.832830   59.280620
Au      2.885000    3.331310   59.280620
Au      5.769990    3.331310   59.280620
Au      8.654990    3.331310   59.280620
Au     11.539980    3.331310   59.280620
Au      4.327490    5.829790   59.280620
Au      7.212490    5.829790   59.280620
Au     10.097490    5.829790   59.280620
Au     12.982480    5.829790   59.280620
Au      5.769990    8.328270   59.280620
Au      8.654990    8.328270   59.280620
Au     11.539980    8.328270   59.280620
Au     14.424980    8.328270   59.280620
Au      0.000000    1.665650   61.636210
Au      2.885000    1.665650   61.636210
Au      5.769990    1.665650   61.636210
Au      8.654990    1.665650   61.636210
Au      1.442500    4.164130   61.636210
Au      4.327490    4.164130   61.636210
Au      7.212490    4.164130   61.636210
Au     10.097490    4.164130   61.636210
Au      2.885000    6.662610   61.636210
Au      5.769990    6.662610   61.636210
Au      8.654990    6.662610   61.636210
Au     11.539980    6.662610   61.636210
Au      4.327490    9.161090   61.636210
Au      7.212490    9.161090   61.636210
Au     10.097490    9.161090   61.636210
Au     12.982480    9.161090   61.636210
Au      0.000000    0.000000   63.991800
Au      2.885000    0.000000   63.991800
Au      5.769990    0.000000   63.991800
Au      8.654990    0.000000   63.991800
Au      1.442500    2.498480   63.991800
Au      4.327490    2.498480   63.991800
Au      7.212490    2.498480   63.991800
Au     10.097490    2.498480   63.991800
Au      2.885000    4.996960   63.991800
Au      5.769990    4.996960   63.991800
Au      8.654990    4.996960   63.991800
Au     11.539980    4.996960   63.991800
Au      4.327490    7.495440   63.991800
Au      7.212490    7.495440   63.991800
Au     10.097490    7.495440   63.991800
Au     12.982480    7.495440   63.991800
